Minimize
[ err1 ^ 2 + err2 ^ 2 + err3 ^ 2 + err4 ^ 2 + err5 ^ 2 + err6 ^ 2 + err7 ^ 2 + err8 ^ 2 + err9 ^ 2 + err10 ^ 2 ]

Subject To
1000000.0 num_2 + 1000.0 num_1 + num_c + err1 = 2823.1
810000.0 num_2 + 900.0 num_1 + num_c + err2 = 2542.8
640000.0 num_2 + 800.0 num_1 + num_c + err3 = 1894.5
490000.0 num_2 + 700.0 num_1 + num_c + err4 = 1655.9
360000.0 num_2 + 600.0 num_1 + num_c + err5 = 1423.0
250000.0 num_2 + 500.0 num_1 + num_c + err6 = 1181.7
160000.0 num_2 + 400.0 num_1 + num_c + err7 = 948.8
90000.0 num_2 + 300.0 num_1 + num_c + err8 = 718.3
40000.0 num_2 + 200.0 num_1 + num_c + err9 = 481.0
10000.0 num_2 + 100.0 num_1 + num_c + err10 = 238.7
